120 120
30
40 19 12
20 6 10
6 16 5
37 13 19
14 4 3
16 13 1
1 11 1
0 0 5
1 2 4
15 15 17
29 16 16
6 8 2
5 18 18
22 8 12
3 19 8
18 18 2
17 6 5
21 19 6
0 10 8
13 19 3
12 2 19
12 17 0
21 3 18
22 18 19
11 12 18
29 10 16
17 8 3
20 12 14
2 0 4
30 13 15